$molecule
0 5
C   -1.742201631779   0.291991505268   0.018785009576
F   -2.432011820999   0.172210542925   -1.111526999939
F   -1.488036784139   1.584619962682   0.200137593583
F   -2.520119261883   -0.137946327247   1.005985860681
C   -0.487199743258   -0.506670126236   -0.047591275825
F   -0.680489579310   -1.805144352147   -0.249713637430
C   0.754724651181   -0.076777475924   0.055894594690
F   1.109358379254   1.167202143602   0.274789923119
F   1.793213785660   -0.852847700588   -0.004110043541
$end
$rem
    JOBTYPE             Force
    EXCHANGE            BHHLYP
    BASIS               6-31+G*
    UNRESTRICTED        True
    MAX_SCF_CYCLES      500
    SYM_IGNORE          True
    SCF_Algorithm       DIIS

    SPIN_FLIP           True
    SET_Iter            500

    MAX_CIS_CYCLES      500
    SCF_GUESS           Read

CIS_N_ROOTS 1
CIS_STATE_DERIV 1
$end
