$molecule
0 3
C   -1.740089063544   0.294244708873   0.014831506621
F   -2.434132444482   0.162892392557   -1.113973137314
F   -1.493266074737   1.585235141402   0.206000844343
F   -2.519281921844   -0.134833218968   1.005124005717
C   -0.476840532247   -0.506577632334   -0.048785750938
F   -0.688202744003   -1.803335560647   -0.252557179036
C   0.759601244594   -0.067358188105   0.069826131571
F   1.110334444452   1.171185410299   0.272100233080
F   1.795486425581   -0.860451484669   -0.006684099776
$end
$rem
    JOBTYPE             Force
    EXCHANGE            BHHLYP
    BASIS               6-31+G*
    UNRESTRICTED        True
    MAX_SCF_CYCLES      500
    SYM_IGNORE          True
    SCF_Algorithm       DIIS

    SPIN_FLIP           True
    SET_Iter            500

    MAX_CIS_CYCLES      500
$end
